benchmarks/VRPTW/TSPTW/solution/n150w40.005.txt.solution
1 71 109 84 56 12 26 78 13 99 106 112 98 108 25 143 88 2 60 5 28 122 41 59 23 103 113 65 86 16 3 6 118 150 149 148 144 29 101 102 7 22 127 133 120 35 53 111 20 128 135 21 45 142 11 34 47 95 139 74 4 123 117 90 49 50 129 79 42 126 15 115 14 93 124 138 76 110 9 8 73 121 81 70 91 52 27 96 48 116 87 107 37 38 85 18 141 72 54 33 146 40 36 147 83 32 67 10 75 44 131 55 62 125 136 30 97 100 105 61 31 82 114 58 92 80 43 66 63 19 57 89 145 104 24 132 39 17 69 137 130 94 77 134 68 51 64 46 151 119 140 
824
